************************************************************************
file with basedata            : mm64_.bas
initial value random generator: 41984554
************************************************************************
projects                      :  1
jobs (incl. supersource/sink ):  12
horizon                       :  81
RESOURCES
  - renewable                 :  2   R
  - nonrenewable              :  2   N
  - doubly constrained        :  0   D
************************************************************************
PROJECT INFORMATION:
pronr.  #jobs rel.date duedate tardcost  MPM-Time
    1     10      0       15        4       15
************************************************************************
PRECEDENCE RELATIONS:
jobnr.    #modes  #successors   successors
   1        1          3           2   3   4
   2        3          3           5   6   8
   3        3          2           7  10
   4        3          1           8
   5        3          1           9
   6        3          3           7   9  10
   7        3          1          11
   8        3          1          11
   9        3          1          12
  10        3          1          12
  11        3          1          12
  12        1          0        
************************************************************************
REQUESTS/DURATIONS:
jobnr. mode duration  R 1  R 2  N 1  N 2
------------------------------------------------------------------------
  1      1     0       0    0    0    0
  2      1     4       4   10    5    6
         2     4       3    9    6    6
         3     7       2    5    2    6
  3      1     5       4   10    5    6
         2     7       3   10    3    5
         3     8       3    9    3    5
  4      1     4      10    8   10    7
         2     6       6    6    6    5
         3    10       6    6    4    4
  5      1     1       8    7    5    7
         2     5       7    7    4    6
         3     6       2    6    4    2
  6      1     3       8   10    6    7
         2     6       7    9    4    6
         3     8       5    9    3    3
  7      1     4       2    4    7    5
         2     5       2    4    6    5
         3    10       1    3    4    5
  8      1     5       9    7    3    6
         2     8       8    4    3    5
         3     9       6    3    3    4
  9      1     2       5   10    9   10
         2     6       4    7    8    7
         3     9       4    4    5    4
 10      1     2       7   10    4    9
         2     5       5    8    4    8
         3     6       4    5    4    6
 11      1     4       4    2    6   10
         2     8       4    1    6   10
         3     8       3    2    6    9
 12      1     0       0    0    0    0
************************************************************************
RESOURCEAVAILABILITIES:
  R 1  R 2  N 1  N 2
   29   34   61   73
************************************************************************
MAXIMAL LAGS:
from  to  type  delay
    1   12   ES      0
    1    2   ES      0
    2   12   ES      0
    1    3   ES      0
    3   12   ES      0
    1    4   ES      0
    4   12   ES      0
    1    5   ES      0
    5   12   ES      0
    1    6   ES      0
    6   12   ES      0
    1    7   ES      0
    7   12   ES      0
    1    8   ES      0
    8   12   ES      0
    1    9   ES      0
    9   12   ES      0
    1   10   ES      0
   10   12   ES      0
    1   11   ES      0
   11   12   ES      0
    1   12   ES      0
    2    5   SS     -3
    2    5   SE     -3
    2    5   ES      4
    2    5   EE      4
    2    6   SS      7
    2    6   SE      0
    6    2   SE      0
    2    6   ES      0
    2    6   EE      6
    2    8   SS      7
    2    8   SE     10
    2    8   ES      3
    2    8   EE     -8
    3    7   SS      3
    3    7   SE     10
    3    7   ES     -5
    3    7   EE      1
    3   10   SS      2
    3   10   SE      8
    3   10   ES      2
    3   10   EE     11
    4    8   SS     -3
    4    8   SE      8
    4    8   ES      1
    4    8   EE     -8
    5    9   SS     11
    5    9   SE    -12
    5    9   ES     -8
    5    9   EE     -1
    6    7   SS      4
    6    7   SE     11
    6    7   ES     10
    6    7   EE     -7
    6    9   SS     -1
    6    9   SE     -3
    6    9   ES     -6
    6    9   EE    -10
    6   10   SS      4
    6   10   SE     -6
    6   10   ES     -7
    6   10   EE     10
    7   11   SS      5
    7   11   SE     -9
    7   11   ES     11
    7   11   EE     -8
    8   11   SS     -6
    8   11   SE    -10
    8   11   ES     -8
    8   11   EE     -6
************************************************************************
